 &control
    calculation = 'scf'
    restart_mode='from_scratch',
    prefix='TiO2-brookite',
    tprnfor = .true.
    pseudo_dir = './',
    outdir='./out',
    wf_collect=.true.
 /
 &system
    ibrav     = 0,
    nat       = 24,
    ntyp      = 2,
    ecutwfc   = 300,
    ecutfock  = 500,
    input_dft = 'pbe0',
    nqx1      = 3,
    nqx2      = 2,
    nqx3      = 1
 /
 &electrons
    mixing_beta = 0.7
    conv_thr =  1.0d-8
 /
CELL_PARAMETERS bohr
17.355243479 0 0
0 10.29333746 0
0 0 9.722640211
ATOMIC_SPECIES
 Ti  1.0  Ti.opt.upf
 O   1.0  O.ncpp
ATOMIC_POSITIONS crystal
Ti       0.628898968   0.404854733   0.137588406
Ti       0.871101032   0.904854733   0.137588406
Ti       0.371101032   0.904854733   0.362411594
Ti       0.128898968   0.404854733   0.362411594
Ti       0.871101032   0.595145267   0.637588406
Ti       0.628898968   0.095145267   0.637588406
Ti       0.371101032   0.595145267   0.862411594
Ti       0.128898968   0.095145267   0.862411594
O        0.229459099   0.392718038   0.035441912
O        0.270540901   0.892718038   0.035441912
O        0.011550829   0.146893346   0.182602759
O        0.488449171   0.646893346   0.182602759
O        0.988449171   0.646893346   0.317397241
O        0.511550829   0.146893346   0.317397241
O        0.729459099   0.392718038   0.464558088
O        0.770540901   0.892718038   0.464558088
O        0.229459099   0.107281962   0.535441912
O        0.270540901   0.607281962   0.535441912
O        0.488449171   0.853106654   0.682602759
O        0.011550829   0.353106654   0.682602759
O        0.511550829   0.353106654   0.817397241
O        0.988449171   0.853106654   0.817397241
O        0.770540901   0.607281962   0.964558088
O        0.729459099   0.107281962   0.964558088
K_POINTS automatic
3 4 4 1 1 1
